
 param N:= 10;
 param M:= 10;

 param B_c := 22;

 param B_CPU := 37;

 param B_m := 11;

 param: w cpu m:= 
1 	 9	 11 	 1
2 	 5	 6 	 1
3 	 4	 9 	 3
4 	 9	 1 	 2
5 	 7	 3 	 2
6 	 7	 9 	 3
7 	 2	 8 	 1
8 	 2	 5 	 1
9 	 8	 12 	 3
10 	 5	 10 	 1
;